p cnf 7230 17
-820 914 -916 0
-881 -920 0
681 881 -919 0
-205 -859 917 0
-681 -920 0
205 -918 0
919 920 0
-917 918 0
859 -918 0
915 916 0
652 -916 0
-652 -915 0
684 881 922 0
-913 -914 0
-684 -922 0
913 914 0
-881 -922 0
